TOUR_SECTION
161
62
118
92
82
32
69
172
193
199
100
171
148
119
57
98
42
83
54
17
186
22
198
116
29
127
75
94
23
1
156
114
46
106
167
153
195
107
117
99
101
79
80
86
11
194
102
6
144
28
200
159
65
179
126
130
136
33
96
7
81
52
184
58
26
124
70
140
188
88
170
104
111
175
125
183
30
135
110
192
53
145
16
150
134
109
50
3
97
60
12
168
59
162
177
19
147
10
56
174
49
4
84
128
25
67
113
178
182
151
187
143
68
14
73
18
71
180
196
5
85
139
197
39
72
149
189
173
2
115
131
138
191
164
166
123
155
13
122
45
132
137
24
34
129
158
103
163
37
142
95
105
93
77
15
190
74
120
90
165
21
41
64
87
78
185
169
44
63
20
91
157
108
160
154
35
112
133
38
146
121
61
43
176
51
48
8
55
36
40
76
31
181
27
66
9
141
89
152
47
-1
EOF